(set-option :produce-models true)
(set-logic QF_UF)
(declare-fun p5() Bool)
(declare-fun p20() Bool)
(declare-fun p9() Bool)
(declare-fun p11() Bool)
(declare-fun p1() Bool)
(declare-fun p23() Bool)
(declare-fun p0() Bool)
(declare-fun p15() Bool)
(declare-fun p4() Bool)
(declare-fun p16() Bool)
(declare-fun p17() Bool)
(declare-fun p2() Bool)
(declare-fun p22() Bool)
(declare-fun p10() Bool)
(declare-fun p21() Bool)
(declare-fun p8() Bool)
(declare-fun p13() Bool)
(declare-fun p28() Bool)
(declare-fun p25() Bool)
(declare-fun p24() Bool)
(declare-fun p7() Bool)
(declare-fun p14() Bool)
(declare-fun p12() Bool)
(declare-fun p3() Bool)
(declare-fun p18() Bool)
(declare-fun p29() Bool)
(declare-fun p26() Bool)
(declare-fun p27() Bool)
(declare-fun p6() Bool)
(declare-fun p19() Bool)
(assert
(and (or p5 p20 (not p9)) (or (not p11) p1 p23) (or (not p0) (not p15) (not p4)) (or p20 (not p16) p4) (or p17 p2 (not p16)) (or p22 p10 (not p21)) (or (not p8) (not p13) p28) (or (not p25) (not p24) p11) (or p0 p28 (not p4)) (or p5 p21 p7) (or (not p10) (not p24) p2) (or (not p9) (not p14) (not p8)) (or p12 p16 p5) (or p16 p14 (not p3)) (or (not p18) p29 (not p16)) (or p3 p1 p2) (or p14 p11 (not p26)) (or p28 (not p27) p6) (or p12 (not p5) (not p9)) (or (not p14) (not p24) p8) (or p25 (not p26) (not p6)) (or p7 p8 (not p26)) (or (not p10) p27 p10) (or (not p14) p11 (not p17)) (or (not p15) (not p5) p27) (or (not p15) (not p12) p23) (or (not p5) (not p7) p5) (or p21 p22 (not p26)) (or (not p10) p16 p12) (or p17 (not p1) (not p9)) (or (not p29) p12 (not p4)) (or (not p11) p17 (not p18)) (or (not p9) (not p24) p20) (or p17 p2 (not p15)) (or p27 p27 (not p28)) (or (not p12) p24 p14) (or p8 (not p10) p28) (or (not p9) p27 (not p20)) (or p17 (not p0) p9) (or (not p14) p15 p12) (or p10 (not p11) p24) (or (not p0) (not p7) p12) (or (not p22) (not p12) p16) (or (not p16) (not p23) p17) (or p19 p16 p17) (or p23 (not p27) p9) (or (not p28) (not p17) p23) (or p13 (not p2) (not p2)) (or (not p20) p18 p7) (or (not p25) p12 (not p12)) (or (not p6) p11 p1) (or p8 p4 (not p13)) (or (not p10) (not p0) p4) (or (not p10) (not p2) (not p28)) (or p13 (not p26) p28) (or p18 (not p15) p19) (or p22 (not p21) (not p19)) (or (not p14) (not p9) (not p22)) (or (not p14) (not p14) (not p29)) (or p19 (not p17) (not p24)) (or (not p9) (not p28) p24) (or (not p0) (not p24) (not p8)) (or p3 p13 (not p7)) (or p19 p5 (not p12)) (or p1 p7 p4) (or p27 (not p20) (not p17)) (or (not p18) p13 (not p25)) (or (not p9) (not p23) p20) (or p4 (not p16) (not p11)) (or (not p23) (not p28) (not p23)) (or (not p15) (not p4) (not p28)) (or p6 (not p17) p15) (or p8 p25 p3) (or p26 p15 (not p8)) (or p27 (not p29) p17) (or p24 (not p17) (not p26)) (or p14 p24 (not p28)) (or (not p24) (not p29) (not p20)) (or p23 (not p13) (not p9)) (or p14 p14 p25) (or (not p19) (not p8) (not p2)) (or (not p22) (not p20) p26) (or (not p0) p23 p17) (or p19 p9 p2) (or p12 p14 p15) (or (not p25) p25 (not p21)) (or (not p8) p25 p9) (or p28 (not p2) p20) (or p11 p7 p8) (or p2 (not p5) (not p5)) (or p27 (not p14) p3) (or p22 p8 (not p12)) (or p2 p15 p23) (or (not p5) (not p17) p1) (or (not p17) p2 (not p8)) (or (not p5) p2 p11) (or (not p8) (not p20) p0) (or p24 p20 (not p24)) (or (not p29) (not p6) (not p5)) (or (not p29) (not p11) p5) (or (not p3) (not p0) (not p7)) (or p18 p29 (not p24)) (or p7 p24 (not p6)) (or p28 p6 p27) (or p16 (not p19) (not p26)) (or (not p14) (not p22) (not p8)) (or (not p25) (not p12) (not p16)) (or p5 p17 p13) (or (not p22) p22 p7) (or (not p28) p0 (not p12)) (or (not p9) p0 p14) (or p16 p2 (not p11)) (or p10 (not p10) (not p3)) (or (not p5) (not p19) p2) (or (not p20) p11 (not p24)) (or p21 p16 p13) (or (not p15) p26 p9) (or p14 (not p16) p4) (or p16 p20 (not p10)) (or p29 p12 (not p12)) (or (not p5) (not p4) p4) (or (not p19) p0 p28) (or p16 p2 p19) (or (not p4) (not p6) (not p15)) (or p14 (not p27) (not p11)) (or (not p19) p23 p10) (or p16 (not p21) p29) (or p4 (not p29) p26))
)
(check-sat)
(get-model)
